Instance0
Gap





22.50%
20.97%
10.11%
10.11%
10.11%
9.82%
9.44%
8.48%
7.08%
6.56%
5.87%
5.14%
4.46%
3.87%
3.30%
3.17%
3.00%
2.80%
2.56%
2.30%
2.03%
2.00%
1.87%
1.81%
1.80%
1.65%
1.63%
0
CPXPARAM_MIP_Cuts_LiftProj-Gomory:LiftProj 14
CPXPARAM_MIP_Cuts_LiftProj-Gomory:Gomory 1
Instance1
Gap



69.73%
67.46%
65.86%
63.55%
63.35%
63.26%
63.20%
62.46%
60.57%
56.33%
54.94%
54.08%
52.62%
51.54%
51.06%
50.62%
50.09%
47.85%
46.55%
46.35%
45.90%
45.65%
45.08%
44.91%
43.91%
43.40%
40.43%
36.82%
CPXPARAM_MIP_Cuts_LiftProj-Gomory:LiftProj 14
CPXPARAM_MIP_Cuts_LiftProj-Gomory:Gomory 0
Instance2
Gap



0.35%
0.35%
0.35%
0.35%
0.35%
CPXPARAM_MIP_Cuts_LiftProj-Gomory:LiftProj 0
CPXPARAM_MIP_Cuts_LiftProj-Gomory:Gomory 3
Instance3
Gap

0.00%
0
CPXPARAM_MIP_Cuts_LiftProj-Gomory:LiftProj 0
CPXPARAM_MIP_Cuts_LiftProj-Gomory:Gomory 0
Instance4
Gap



6.27%
6.27%
6.27%
5.34%
5.20%
4.70%
4.59%
4.54%
4.46%
4.40%
4.12%
3.41%
2.91%
2.56%
2.40%
1.97%
0.34%
0
CPXPARAM_MIP_Cuts_LiftProj-Gomory:LiftProj 5
CPXPARAM_MIP_Cuts_LiftProj-Gomory:Gomory 0
Instance5
Gap













57.85%
57.05%
56.26%
54.83%
52.71%
52.69%
52.55%
50.85%
49.58%
48.17%
46.24%
44.19%
43.94%
43.05%
41.88%
38.73%
38.43%
36.61%
35.60%
32.31%
31.24%
29.10%
28.10%
27.66%
26.20%
25.34%
24.77%
24.62%
24.21%
24.11%
23.22%
21.87%
21.26%
21.04%
21.01%
21.01%
17.40%
13.92%
12.12%
8.83%
1.06%
0.99%
0.00%
CPXPARAM_MIP_Cuts_LiftProj-Gomory:LiftProj 1
CPXPARAM_MIP_Cuts_LiftProj-Gomory:Gomory 0
Instance6
Gap
111.50%
92.96%
92.96%
0.13%
0.13%
0.13%
0.13%
CPXPARAM_MIP_Cuts_LiftProj-Gomory:LiftProj 0
CPXPARAM_MIP_Cuts_LiftProj-Gomory:Gomory 1
Instance7
Gap

23.59%
23.59%
23.59%
23.59%
CPXPARAM_MIP_Cuts_LiftProj-Gomory:LiftProj 1
CPXPARAM_MIP_Cuts_LiftProj-Gomory:Gomory 4
Instance8
Gap






2.62%
2.62%
2.62%
2.48%
2.39%
2.33%
2.29%
2.27%
2.07%
2.07%
2.06%
1.80%
1.72%
1.51%
1.49%
1.48%
1.47%
1.02%
CPXPARAM_MIP_Cuts_LiftProj-Gomory:LiftProj 12
CPXPARAM_MIP_Cuts_LiftProj-Gomory:Gomory 0
Instance9
Gap




























17.80%
17.80%
17.80%
17.40%
17.11%
16.93%
16.22%
16.06%
15.66%
15.42%
15.41%
15.38%
15.37%
15.36%
15.35%
15.30%
CPXPARAM_MIP_Cuts_LiftProj-Gomory:LiftProj 13
CPXPARAM_MIP_Cuts_LiftProj-Gomory:Gomory 3
Instance10
Gap



0.01%
CPXPARAM_MIP_Cuts_LiftProj-Gomory:LiftProj 2
CPXPARAM_MIP_Cuts_LiftProj-Gomory:Gomory 4
Instance11
Gap



0.02%
0.02%
0.02%
0.02%
CPXPARAM_MIP_Cuts_LiftProj-Gomory:LiftProj 0
CPXPARAM_MIP_Cuts_LiftProj-Gomory:Gomory 4
Instance12
Gap

















8.73%
8.73%
8.73%
7.89%
7.57%
7.42%
7.35%
7.25%
7.18%
7.14%
7.10%
7.08%
6.92%
6.61%
6.55%
6.50%
6.38%
6.36%
6.33%
6.32%
6.29%
CPXPARAM_MIP_Cuts_LiftProj-Gomory:LiftProj 14
CPXPARAM_MIP_Cuts_LiftProj-Gomory:Gomory 3
Instance13
Gap

37.35%
36.94%
34.33%
32.94%
31.71%
30.95%
30.18%
27.09%
25.06%
24.70%
24.62%
24.40%
23.98%
23.75%
23.42%
23.29%
23.02%
22.46%
22.20%
22.20%
20.67%
20.28%
19.56%
19.56%
19.42%
19.38%
18.97%
18.47%
18.07%
17.78%
17.70%
17.64%
17.35%
17.33%
16.45%
CPXPARAM_MIP_Cuts_LiftProj-Gomory:LiftProj 15
CPXPARAM_MIP_Cuts_LiftProj-Gomory:Gomory 0
Instance14
Gap

1.86%
1.86%
1.86%
1.86%
1.86%
1.86%
1.40%
CPXPARAM_MIP_Cuts_LiftProj-Gomory:LiftProj 0
CPXPARAM_MIP_Cuts_LiftProj-Gomory:Gomory 4
Instance15
Gap
112.51%
98.57%
98.57%
98.57%
29.55%
29.55%
CPXPARAM_MIP_Cuts_LiftProj-Gomory:LiftProj 1
CPXPARAM_MIP_Cuts_LiftProj-Gomory:Gomory 4
Instance16
Gap



2.33%
2.33%
2.33%
1.65%
1.37%
1.28%
1.22%
0
CPXPARAM_MIP_Cuts_LiftProj-Gomory:LiftProj 1
CPXPARAM_MIP_Cuts_LiftProj-Gomory:Gomory 9
Instance17
Gap



48.65%
44.83%
43.37%
42.40%
42.23%
42.14%
42.08%
39.92%
39.72%
37.15%
37.11%
36.05%
36.04%
35.92%
35.81%
35.73%
35.44%
CPXPARAM_MIP_Cuts_LiftProj-Gomory:LiftProj 15
CPXPARAM_MIP_Cuts_LiftProj-Gomory:Gomory 0
Instance18
Gap
110.91%
93.14%
93.14%
0.05%
0.05%
0.05%
0
CPXPARAM_MIP_Cuts_LiftProj-Gomory:LiftProj 1
CPXPARAM_MIP_Cuts_LiftProj-Gomory:Gomory 2
Instance19
Gap
114.31%
97.72%
97.72%
0.46%
0.46%
0.46%
0.46%
CPXPARAM_MIP_Cuts_LiftProj-Gomory:LiftProj 0
CPXPARAM_MIP_Cuts_LiftProj-Gomory:Gomory 1
Instance20
Gap



5.02%
5.02%
5.02%
3.85%
3.38%
2.73%
2.65%
2.65%
0
CPXPARAM_MIP_Cuts_LiftProj-Gomory:LiftProj 3
CPXPARAM_MIP_Cuts_LiftProj-Gomory:Gomory 6
Instance21
Gap



33.12%
25.85%
23.85%
23.31%
22.47%
20.74%
20.50%
19.68%
19.47%
19.25%
19.08%
18.51%
18.19%
17.78%
17.67%
17.48%
17.48%

CPXPARAM_MIP_Cuts_LiftProj-Gomory:LiftProj 8
CPXPARAM_MIP_Cuts_LiftProj-Gomory:Gomory 3
Instance22
Gap

0.39%
0.39%
0.39%
0.39%
0.39%
0.39%
0.39%
0.38%
CPXPARAM_MIP_Cuts_LiftProj-Gomory:LiftProj 2
CPXPARAM_MIP_Cuts_LiftProj-Gomory:Gomory 7
Instance23
Gap



3.15%
3.15%
3.15%
3.15%
3.15%
2.73%
CPXPARAM_MIP_Cuts_LiftProj-Gomory:LiftProj 3
CPXPARAM_MIP_Cuts_LiftProj-Gomory:Gomory 8
Instance24
Gap

10.00%
10.00%
8.85%
8.85%
8.85%
7.36%
6.63%
5.78%
5.15%
4.91%
4.84%
4.73%
4.55%
4.39%
3.77%
3.35%
3.12%
1.89%
0
CPXPARAM_MIP_Cuts_LiftProj-Gomory:LiftProj 1
CPXPARAM_MIP_Cuts_LiftProj-Gomory:Gomory 0
Instance25
Gap



85.95%
80.42%
78.87%
71.29%
66.83%
64.16%
63.76%
62.94%
61.50%
59.27%
57.36%
56.68%
56.29%
56.05%
55.20%
53.28%
52.63%
52.59%
52.29%
52.16%
51.84%
51.58%
51.40%
50.48%
50.40%
50.19%
49.93%
49.76%
49.49%
49.38%
49.04%
49.00%
48.99%
47.76%
CPXPARAM_MIP_Cuts_LiftProj-Gomory:LiftProj 20
CPXPARAM_MIP_Cuts_LiftProj-Gomory:Gomory 0
Instance26
Gap
0.00%
CPXPARAM_MIP_Cuts_LiftProj-Gomory:LiftProj 0
CPXPARAM_MIP_Cuts_LiftProj-Gomory:Gomory 0
Instance27
Gap

0.42%
0.42%
0.42%
0.42%
0.42%
0.33%
CPXPARAM_MIP_Cuts_LiftProj-Gomory:LiftProj 0
CPXPARAM_MIP_Cuts_LiftProj-Gomory:Gomory 2
Instance28
Gap



11.69%
11.69%
11.69%
11.14%
10.83%
9.73%
9.51%
9.13%
8.89%
8.41%
8.23%
7.51%
6.58%
6.58%
6.53%
6.38%
6.30%
6.24%
6.22%
6.02%
5.97%
5.96%
0
CPXPARAM_MIP_Cuts_LiftProj-Gomory:LiftProj 16
CPXPARAM_MIP_Cuts_LiftProj-Gomory:Gomory 1
Instance29
Gap
111.49%
406.57%
82.87%
81.66%
79.43%
78.61%
77.93%
77.73%
77.69%
77.13%
75.43%
75.34%
75.27%
74.93%
74.84%
74.36%
73.92%
73.54%
73.14%
72.89%
71.91%
71.41%
70.67%
32.17%
32.17%
32.17%
31.89%
31.81%
30.72%
28.72%
27.57%
26.44%
25.16%
24.31%
23.82%
23.72%
23.52%
23.11%
22.99%
22.70%
22.56%
22.29%
22.26%
22.22%
21.95%
21.81%
21.79%
21.77%
14.77%
CPXPARAM_MIP_Cuts_LiftProj-Gomory:LiftProj 17
CPXPARAM_MIP_Cuts_LiftProj-Gomory:Gomory 3
Instance30
Gap
120.75%
227.70%
17.33%
17.33%
17.33%
17.33%
CPXPARAM_MIP_Cuts_LiftProj-Gomory:LiftProj 2
CPXPARAM_MIP_Cuts_LiftProj-Gomory:Gomory 3
Instance31
Gap

5.20%
5.20%
5.20%
5.20%
5.20%
5.20%
5.20%
4.93%
CPXPARAM_MIP_Cuts_LiftProj-Gomory:LiftProj 2
CPXPARAM_MIP_Cuts_LiftProj-Gomory:Gomory 6
Instance32
Gap




5.63%
5.63%
5.63%
5.34%
4.76%
4.61%
4.50%
4.31%
4.20%
4.15%
4.13%
4.12%
4.10%
4.08%
3.83%
3.56%
3.52%
3.51%
3.37%
3.17%
0
CPXPARAM_MIP_Cuts_LiftProj-Gomory:LiftProj 6
CPXPARAM_MIP_Cuts_LiftProj-Gomory:Gomory 1
Instance33
Gap





54.22%
48.22%
43.42%
34.64%
28.77%
24.82%
20.27%
20.27%
20.27%
19.46%
15.29%
3.21%
1.46%
0.00%
CPXPARAM_MIP_Cuts_LiftProj-Gomory:LiftProj 1
CPXPARAM_MIP_Cuts_LiftProj-Gomory:Gomory 1
Instance34
Gap



0.14%
0.14%
0.14%
0.14%
0.07%
CPXPARAM_MIP_Cuts_LiftProj-Gomory:LiftProj 2
CPXPARAM_MIP_Cuts_LiftProj-Gomory:Gomory 5
Instance35
Gap



40.80%
40.80%
CPXPARAM_MIP_Cuts_LiftProj-Gomory:LiftProj 1
CPXPARAM_MIP_Cuts_LiftProj-Gomory:Gomory 4
Instance36
Gap



7.12%
7.12%
7.12%
6.62%
5.91%
5.36%
5.34%
4.82%
4.73%
4.39%
4.24%
4.12%
3.97%
3.75%
3.66%
3.52%
0
CPXPARAM_MIP_Cuts_LiftProj-Gomory:LiftProj 9
CPXPARAM_MIP_Cuts_LiftProj-Gomory:Gomory 2
Instance37
Gap

































0
CPXPARAM_MIP_Cuts_LiftProj-Gomory:LiftProj 19
CPXPARAM_MIP_Cuts_LiftProj-Gomory:Gomory 1
Instance38
Gap

0.21%
0.21%
0.21%
0.21%
0.00%
CPXPARAM_MIP_Cuts_LiftProj-Gomory:LiftProj 0
CPXPARAM_MIP_Cuts_LiftProj-Gomory:Gomory 1
Instance39
Gap



0
CPXPARAM_MIP_Cuts_LiftProj-Gomory:LiftProj 1
CPXPARAM_MIP_Cuts_LiftProj-Gomory:Gomory 4
